Minimize
 obj: 0 X_0_1
Subject To
 out_0:
  + 1 X_0_1 + 1 X_0_2 + 1 X_0_3 + 1 X_0_4
  = 1
 in_0:
  + 1 X_1_0 + 1 X_2_0 + 1 X_3_0 + 1 X_4_0
  = 1
 out_1:
  + 1 X_1_0 + 1 X_1_2 + 1 X_1_3 + 1 X_1_4
  = 1
 in_1:
  + 1 X_0_1 + 1 X_2_1 + 1 X_3_1 + 1 X_4_1
  = 1
 out_2:
  + 1 X_2_0 + 1 X_2_1 + 1 X_2_3 + 1 X_2_4
  = 1
 in_2:
  + 1 X_0_2 + 1 X_1_2 + 1 X_3_2 + 1 X_4_2
  = 1
 out_3:
  + 1 X_3_0 + 1 X_3_1 + 1 X_3_2 + 1 X_3_4
  = 1
 in_3:
  + 1 X_0_3 + 1 X_1_3 + 1 X_2_3 + 1 X_4_3
  = 1
 out_4:
  + 1 X_4_0 + 1 X_4_1 + 1 X_4_2 + 1 X_4_3
  = 1
 in_4:
  + 1 X_0_4 + 1 X_1_4 + 1 X_2_4 + 1 X_3_4
  = 1
 mtz_1_2:
  + 1 U1 - 1 U2 + 4 X_1_2
  <= 3
 mtz_1_3:
  + 1 U1 - 1 U3 + 4 X_1_3
  <= 3
 mtz_1_4:
  + 1 U1 - 1 U4 + 4 X_1_4
  <= 3
 mtz_2_1:
  + 1 U2 - 1 U1 + 4 X_2_1
  <= 3
 mtz_2_3:
  + 1 U2 - 1 U3 + 4 X_2_3
  <= 3
 mtz_2_4:
  + 1 U2 - 1 U4 + 4 X_2_4
  <= 3
 mtz_3_1:
  + 1 U3 - 1 U1 + 4 X_3_1
  <= 3
 mtz_3_2:
  + 1 U3 - 1 U2 + 4 X_3_2
  <= 3
 mtz_3_4:
  + 1 U3 - 1 U4 + 4 X_3_4
  <= 3
 mtz_4_1:
  + 1 U4 - 1 U1 + 4 X_4_1
  <= 3
 mtz_4_2:
  + 1 U4 - 1 U2 + 4 X_4_2
  <= 3
 mtz_4_3:
  + 1 U4 - 1 U3 + 4 X_4_3
  <= 3
 obj1:
  + 197 X_0_1 + 91 X_0_2 + 533 X_0_3 + 553 X_0_4 + 197 X_1_0 + 109 X_1_2 + 667 X_1_3 + 647 X_1_4
  + 91 X_2_0 + 109 X_2_1 + 604 X_2_3 + 606 X_2_4 + 533 X_3_0 + 667 X_3_1 + 604 X_3_2 + 147 X_3_4
  + 553 X_4_0 + 647 X_4_1 + 606 X_4_2 + 147 X_4_3
  <= 1
 obj2:
  + 505 X_0_1 + 388 X_0_2 + 219 X_0_3 + 510 X_0_4 + 505 X_1_0 + 853 X_1_2 + 643 X_1_3 + 357 X_1_4
  + 388 X_2_0 + 853 X_2_1 + 461 X_2_3 + 897 X_2_4 + 219 X_3_0 + 643 X_3_1 + 461 X_3_2 + 515 X_3_4
  + 510 X_4_0 + 357 X_4_1 + 897 X_4_2 + 515 X_4_3
  <= 2
 obj3:
  + 323 X_0_1 + 108 X_0_2 + 673 X_0_3 + 118 X_0_4 + 323 X_1_0 + 411 X_1_2 + 788 X_1_3 + 221 X_1_4
  + 108 X_2_0 + 411 X_2_1 + 595 X_2_3 + 223 X_2_4 + 673 X_3_0 + 788 X_3_1 + 595 X_3_2 + 743 X_3_4
  + 118 X_4_0 + 221 X_4_1 + 223 X_4_2 + 743 X_4_3
  <= 3
 obj4:
  + 491 X_0_1 + 582 X_0_2 + 598 X_0_3 + 663 X_0_4 + 491 X_1_0 + 787 X_1_2 + 343 X_1_3 + 891 X_1_4
  + 582 X_2_0 + 787 X_2_1 + 580 X_2_3 + 103 X_2_4 + 598 X_3_0 + 343 X_3_1 + 580 X_3_2 + 678 X_3_4
  + 663 X_4_0 + 891 X_4_1 + 103 X_4_2 + 678 X_4_3
  <= 4
Bounds
 1 <= U1 <= 4
 1 <= U2 <= 4
 1 <= U3 <= 4
 1 <= U4 <= 4
Binary
 X_0_1
 X_0_2
 X_0_3
 X_0_4
 X_1_0
 X_1_2
 X_1_3
 X_1_4
 X_2_0
 X_2_1
 X_2_3
 X_2_4
 X_3_0
 X_3_1
 X_3_2
 X_3_4
 X_4_0
 X_4_1
 X_4_2
 X_4_3
End
